44
1
21
2
2
3
4
5
3
18
19
6
24
16
27
7
33
8
9
10
28
5
2
15
36
35
11
12
37
17
13
26
14
42
10
6
33
13
22
3
11
43
19
36
7
15
26
16
17
18
25
19
16
9
29
20
21
30
20
32
29
25
23
30
39
12
34
1
6
23
14
27
33
44
37
25
14
34
8
1
31
30
41
39
31
38
38
22
23
7
4
35
24
43
32
40
28
37
42
40
41
